200
[40,41,42,43,44,45,46,47,48,49,50,51,52,53,54,55,56,57,58,59,60,61,62,63,64,65,66,67,68,69,70,71,72,73,74,75,76,77,78,79,80,81,82,83,84,85,86,87,88,89,90,91,92,93,94,95,96,97,98,99,100,101,102,103,104,105,106,107,108,109,110,111,112,113,114,115,116,117,118,119,120,121,122,123,124,125,126,127,128,129,130,131,132,133,134,135,136,137,138,139,140]
[8,10,9,11,6,6,7,8,9,4,9,2,3,11,6,6,7,8,8,4,6,4,6,11,5,5,11,11,6,3,9,11,13,8,12,8,17,4,3,6,10,9,5,9,5,8,10,7,5,12,8,8,7,2,9,13,5,15,8,6,5,8,3,3,7,6,10,9,6,13,8,7,3,14,8,3,3,6,3,6,13,14,4,5,8,5,7,5,9,11,8,6,5,4,4,8,12,8,6,7,8]
